c
c Renamed file of cc.cnf 
c Variables are renamed according to left2right.ord 
c
c Date: Thu Apr 29 14:49:09 PDT 2004 by (jinbo)
c Host: Linux solution 2.4.18-4smp #1 SMP Thu May 2 18:32:34 EDT 2002 i686 unknown
c
c Copyright (c) 2001 Fadi A. Aloul.
c
p cnf 115 265
101 -102 0
100 -102 0
102 -101 -100 0
-102 103 0
-103 102 0
36 -35 0
-50 -35 0
39 -35 0
37 -35 0
35 -36 50 -39 -37 0
-35 29 0
-29 35 0
50 -82 0
-80 -82 0
82 -50 80 0
-82 83 0
-78 -81 0
-80 -81 0
81 78 80 0
-81 83 0
-83 82 81 0
36 -53 0
-52 -53 0
53 -36 52 0
-53 54 0
-54 53 0
-113 -114 0
114 113 0
-114 115 0
-115 114 0
5 -4 0
37 -4 0
4 -5 -37 0
-4 3 0
-3 4 0
-3 -2 0
2 3 0
-2 1 0
-1 2 0
61 -62 0
-64 -62 0
62 -61 64 0
-62 63 0
-78 -65 0
-64 -65 0
65 78 64 0
-65 63 0
-63 62 65 0
50 -15 0
-17 -15 0
15 -50 17 0
-15 14 0
-18 -16 0
-17 -16 0
16 18 17 0
-16 14 0
-14 15 16 0
-39 -25 0
-26 -25 0
25 39 26 0
-25 23 0
-37 -24 0
-26 -24 0
24 37 26 0
-24 23 0
-12 -22 0
-26 -22 0
22 12 26 0
-22 23 0
-23 25 24 22 0
-78 -75 0
-72 -75 0
75 78 72 0
-75 74 0
-50 -73 0
104 -73 0
-72 -73 0
73 50 -104 72 0
-73 74 0
-74 75 73 0
107 -85 0
-77 -85 0
85 -107 77 0
-85 84 0
-78 -79 0
-77 -79 0
79 78 77 0
-79 84 0
-84 85 79 0
113 -94 0
-91 -94 0
94 -113 91 0
-94 93 0
-78 -92 0
-91 -92 0
92 78 91 0
-92 93 0
-93 94 92 0
110 -90 0
-87 -90 0
90 -110 87 0
-90 89 0
-78 -88 0
-87 -88 0
88 78 87 0
-88 89 0
-89 90 88 0
101 -98 0
-95 -98 0
98 -101 95 0
-98 97 0
-78 -96 0
-95 -96 0
96 78 95 0
-96 97 0
-97 98 96 0
36 -56 0
56 -36 0
-56 78 0
-39 -55 0
55 39 0
-55 78 0
-37 -57 0
57 37 0
-57 78 0
-78 56 55 57 0
-68 -66 0
66 68 0
-66 64 0
-32 -40 0
37 -40 0
39 -40 0
-36 -40 0
40 32 -37 -39 36 0
-40 64 0
-64 66 40 0
-36 -21 0
21 36 0
-21 18 0
-39 -20 0
20 39 0
-20 18 0
-37 -19 0
19 37 0
-19 18 0
-18 21 20 19 0
-68 -58 0
58 68 0
-58 17 0
27 -28 0
37 -28 0
39 -28 0
-36 -28 0
28 -27 -37 -39 36 0
-28 17 0
-17 58 28 0
36 -13 0
13 -36 0
-13 12 0
-6 -7 0
7 6 0
-7 12 0
-12 13 7 0
-68 -59 0
59 68 0
-59 26 0
-37 -33 0
-36 -33 0
33 37 36 0
-33 26 0
-39 -34 0
-36 -34 0
34 39 36 0
-34 26 0
-26 59 33 34 0
-68 -71 0
71 68 0
-71 72 0
-30 -38 0
37 -38 0
39 -38 0
-36 -38 0
38 30 -37 -39 36 0
-38 72 0
-72 71 38 0
-68 -69 0
69 68 0
-69 77 0
-31 -41 0
37 -41 0
39 -41 0
-36 -41 0
41 31 -37 -39 36 0
-41 77 0
-77 69 41 0
-68 -70 0
70 68 0
-70 91 0
-43 -42 0
37 -42 0
39 -42 0
-36 -42 0
42 43 -37 -39 36 0
-42 91 0
-91 70 42 0
-68 -67 0
67 68 0
-67 87 0
-45 -44 0
37 -44 0
39 -44 0
-36 -44 0
44 45 -37 -39 36 0
-44 87 0
-87 67 44 0
-68 -86 0
86 68 0
-86 95 0
-47 -46 0
37 -46 0
39 -46 0
-36 -46 0
46 47 -37 -39 36 0
-46 95 0
-95 86 46 0
-68 -76 0
76 68 0
-76 80 0
100 -99 0
99 -100 0
-99 80 0
-80 76 99 0
50 -51 0
51 -50 0
-51 52 0
-68 -60 0
60 68 0
-60 52 0
-39 -49 0
49 39 0
-49 52 0
-37 -48 0
48 37 0
-48 52 0
-52 51 60 49 48 0
110 -111 0
111 -110 0
-111 112 0
-112 111 0
36 -9 0
9 -36 0
-9 8 0
-8 9 0
107 -108 0
108 -107 0
-108 109 0
-109 108 0
104 -105 0
105 -104 0
-105 106 0
-106 105 0
50 -11 0
11 -50 0
-11 10 0
-10 11 0
